<number of tasks>
11

<cycle time>
13

<task times>
1 6
2 2
3 5
4 7
5 1
6 2
7 3
8 6
9 5
10 5
11 4

<precedence relations>
1,2
1,3
1,4
1,5
2,6
3,7
4,7
5,7
6,8
7,9
8,10
9,11
10,11

<setup times forward>
1,2:1
1,3:1
2,3:2
2,4:1
2,5:1
2,6:2
2,7:1
3,2:2
3,4:1
3,5:1
3,7:1
3,8:1
4,2:1
4,3:1
4,6:1
4,8:2
4,10:1
5,2:1
5,3:1
5,6:1
5,8:2
5,10:1
6,4:1
6,5:1
6,7:1
6,8:1
6,9:2
7,2:1
7,6:1
7,8:2
7,9:1
7,10:1
8,3:1
8,4:2
8,5:2
8,7:2
8,9:3
8,10:1
9,6:2
9,8:3
9,10:2
9,11:3
10,4:1
10,5:1
10,7:1
10,9:2
10,11:1

<setup times backward>
1,1:4
2,1:5
2,2:4
2,3:6
2,4:5
2,5:5
2,7:5
2,9:4
3,1:3
3,2:2
3,3:4
3,4:3
3,5:3
3,6:4
3,8:5
3,10:4
4,1:4
4,2:3
4,3:5
4,4:4
4,5:4
4,6:5
4,8:6
4,10:5
5,1:4
5,2:3
5,3:5
5,4:4
5,5:4
5,6:5
5,8:6
5,10:5
6,1:3
6,2:2
6,3:4
6,4:3
6,5:3
6,6:4
6,7:3
6,9:2
7,1:4
7,2:3
7,3:5
7,4:4
7,5:4
7,6:5
7,7:4
7,8:6
7,10:5
8,1:2
8,2:1
8,3:3
8,4:2
8,5:2
8,6:3
8,7:2
8,8:4
8,9:1
9,1:5
9,2:4
9,3:6
9,4:5
9,5:5
9,6:6
9,7:5
9,8:7
9,9:4
9,10:6
10,1:3
10,2:2
10,3:4
10,4:3
10,5:3
10,6:4
10,7:3
10,8:5
10,9:2
10,10:4
11,1:2
11,2:1
11,3:3
11,4:2
11,5:2
11,6:3
11,7:2
11,8:4
11,9:1
11,10:3
11,11:4

<end>

<optimal SALBP-1 value>
4


<rand seed>
467321153

